(set-info :smt-lib-version 2.6)
(set-logic QF_S)
(set-info :source |
Generated by: Hung-En Wang, Tzung-Lin Tsai, Chun-Han Lin, Fang Yu, and Jie-Hong R. Jiang
Generated on: 2019-02-28
Generator: Stranger
Application: Security analysis of string manipulating web applications
Target solver: CVC4, Norn, Z3-str2
Publication:
Hung-En Wang, Tzung-Lin Tsai, Chun-Han Lin, Fang Yu, Jie-Hong R. Jiang:
String Analysis via Automata Manipulation with Logic Circuit Representation. CAV (1) 2016: 241-260.
|)
(set-info :license "https://creativecommons.org/licenses/by/4.0/")
(set-info :category "industrial")
(set-info :status unknown)

(declare-fun sigmaStar_0 () String)
(declare-fun sigmaStar_3 () String)
(declare-fun sigmaStar_7 () String)
(declare-fun x_4 () String)
(declare-fun sigmaStar_11 () String)
(declare-fun x_8 () String)
(declare-fun literal_13 () String)
(declare-fun x_12 () String)
(declare-fun x_14 () String)
(declare-fun literal_15 () String)
(declare-fun x_16 () String)
(assert (= x_4 (str.replace sigmaStar_0 "\u{2f}\u{5b}\u{4a}\u{6a}\u{5d}\u{5b}\u{41}\u{61}\u{5d}\u{5b}\u{56}\u{76}\u{5d}\u{5b}\u{41}\u{61}\u{5d}\u{5b}\u{53}\u{73}\u{5d}\u{5b}\u{43}\u{63}\u{5d}\u{5b}\u{52}\u{72}\u{5d}\u{5b}\u{49}\u{69}\u{5d}\u{5b}\u{50}\u{70}\u{5d}\u{5b}\u{54}\u{74}\u{5d}\u{2f}" "\u{6a}\u{61}\u{76}\u{61}\u{20}\u{73}\u{63}\u{72}\u{69}\u{70}\u{74}")))
(assert (= x_8 (str.replace x_4 "\u{2f}\u{5c}\u{3c}\u{2f}" "\u{26}\u{6c}\u{74}\u{3b}")))
(assert (= x_12 (str.replace x_8 "\u{2f}\u{5c}\u{3e}\u{2f}" "\u{26}\u{67}\u{74}\u{3b}")))
(assert (= literal_13 "\u{3c}\u{70}\u{3e}\u{54}\u{69}\u{74}\u{6c}\u{65}\u{3a}\u{3c}\u{62}\u{72}\u{20}\u{2f}\u{3e}"))
(assert (= x_14 (str.++ literal_13 x_12)))
(assert (= literal_15 "\u{3c}\u{2f}\u{70}\u{3e}"))
(assert (= x_16 (str.++ x_14 literal_15)))
(assert (str.in_re x_16 (re.++ (re.* re.allchar) (re.++ (str.to_re "\u{5c}\u{3c}\u{53}\u{43}\u{52}\u{49}\u{50}\u{54}") (re.* re.allchar)))))
(check-sat)
(exit)
